NAME: tsp_7
COMMENT: Random TSP instance
TYPE: TSP
DIMENSION: 50
EDGE_WEIGHT_TYPE: EUC_2D
NODE_COORD_SECTION
1 753 102
2 208 861
3 596 811
4 573 299
5 246 641
6 930 14
7 792 165
8 432 310
9 287 11
10 904 168
11 744 331
12 484 75
13 129 104
14 484 424
15 322 883
16 486 124
17 295 883
18 665 801
19 955 244
20 407 236
21 446 312
22 537 67
23 758 240
24 430 408
25 165 296
26 643 607
27 285 15
28 372 813
29 348 248
30 695 507
31 468 59
32 932 640
33 334 754
34 315 217
35 948 948
36 119 954
37 986 377
38 176 333
39 329 512
40 428 256
41 480 624
42 406 187
43 45 210
44 471 336
45 761 584
46 161 508
47 784 902
48 706 788
49 161 462
50 829 96
